param : I :   X    Y :=
        1     0    1
        2   0.5  0.9
        3     1  0.7
        4   1.5  1.5
        5   1.9    2
        6   2.5  2.4
        7     3  3.2
        8   3.5    2
        9     4  2.7
       10   4.5  3.5
       11     5    1
       12   5.5    4
       13     6  3.6
       14   6.6  2.7
       15     7  5.7
       16   7.6  4.6
       17   8.5    6
       18     9  6.8
       19    10  7.3
;

